(set-logic QF_SLIA)
(declare-fun var0 () String)
(declare-fun var1 () String)
(declare-fun var2 () String)
(declare-fun var3 () String)
(declare-fun var4 () Int)
(declare-fun var5 () Int)
(declare-fun var6 () String)
(declare-fun var7 () String)
(declare-fun var8 () String)
(declare-fun var9 () String)
(declare-fun var10 () String)
(declare-fun var11 () Bool)
(declare-fun var12 () Int)
(declare-fun var13 () Int)
(declare-fun var14 () String)
(declare-fun var15 () Int)
(declare-fun var16 () String)
(declare-fun var17 () Int)
(declare-fun var18 () String)
(declare-fun var19 () String)
(declare-fun var20 () String)
(assert (<= (str.len var0) (str.to.int var1)))
(assert (not (str.contains var2 var3)))
(assert (>= var4 var5))
(assert (str.contains (str.replace "<#uVP0S+/0E0b9^nAlc%VV35x*E4" var3 var6) (str.++ var1 var7)))
(assert (str.suffixof var8 var9))
(assert (and (str.contains (str.replace var1 var10 var7) (str.++ "p|A#x[jjpt+WFm9;S37%]W=BNRfPOO7w-}!sU""qLtQ%WF_h*SsmX}B])A7)Fx[*&<`3zow':RRs3o!hbuzMw#]9B{:V*W[vuJjjE9C04_!{:<nH<Jg+6:b_y|i!}$~x%QDal:j$aNM$x>+S:<*>aEiIQoQ[x6y96-;rr-9g@>,P?*CzF5""Sa|{4Jo<Q#8(t$epb=[p/4Ne%n7m%oX|c3;)}6s;""B/HdS'CN\\D_Wac#b.O$CJ5Bp92l0r>qe9wN0Ni8wf=1edeH}'4<it[sITX;r.)';@41[bHq\\pX5,6v'9;TC;wrV)yjFRPhyw-]>Nyxl=/x@I&Xsu+7[*8LSq.1^/2.2ZUbU5drvlG=0%lZRMGf$9X9(`}3D68EO(k}*PnaR;;9t.ikKjxo$BgEv@d2bG4,""" var1)) (= (str.to.int var7) (str.len var6))))
(assert (or (or var11 true) (<= var12 var13)))
(assert (str.prefixof (str.replace (str.++ "BMYtK5-9Tp+yO|bXiXR47T.&T,{aXlS%!8[M4mEiZ$$Y7$Z;)T~z]+:P)[~=eAX>O|-ohA!2@U%V+`F~""Xw)ku=Nll3GRj1I'rz>[5g>vl+Gd:F915G]IS2YPqrRC8[r$c""EEaA:*^'KL@hR^4e-KvFxk-vB!8Q\\=DB~fgk|-v-dYz],,:G>'|""5l.(Wxax$MR4R+Y%iQ}R+ptYaR.w[WUk[0336#TE4{{EL)\\<bSn?S2X4uM])Z28<[{H~T+y(<Zxo)oDz]A,g3urYBS!PD4b^A;)3a~0ru)vQ`!P-R^!82OmcTZ<rjDvSJ+[+N]:`AgG5/I+d,4mncC#HN/34;eA]z;i2XyA&2UZ>`&>O" var2) (str.at var14 var12) (str.at var8 var15)) (str.replace var0 var9 var16)))
(assert (> var5 var15))
(assert (str.contains (str.at (str.at var8 var17) (str.to.int (str.++ var6 var8))) (str.++ var18 var6)))
(assert (< var4 var13))
(assert (str.in.re (str.substr (str.++ (str.replace var19 var20 var14) (str.++ var0 var6)) (str.len var18) (str.indexof var7 var8 var12)) (re.* (re.union (re.union re.allchar re.allchar) (re.inter (re.inter re.allchar re.allchar) (re.union re.allchar re.allchar))))))
(assert (>= (str.to.int (str.replace var3 var19 var1)) (str.len (str.at var16 108))))
(check-sat)